n_tasks = 30;
duration = [ 10, 8, 8, 4, 3, 3, 2, 2, 4, 10, 9, 10, 9, 10, 5, 2, 2, 3, 3, 5, 2, 7, 7, 4, 7, 6, 5, 3, 8, 5 ];

n_res = 4;
L = [ 13, 17, 19, 14 ];

req = [| 8, 6, 7, 7, 6, 0, 8, 8, 0, 0, 0, 3, 4, 0, 6, 9, 1, 7, 7, 4, 4, 0, 1, 0, 6, 1, 7, 0, 4, 9
      | 0, 3, 3, 1, 2, 1, 3, 2, 8, 1, 4, 0, 6, 10, 0, 0, 10, 5, 6, 8, 7, 9, 10, 4, 0, 8, 4, 7, 0, 5
      | 4, 0, 3, 6, 0, 0, 5, 1, 10, 10, 5, 4, 9, 7, 5, 8, 4, 3, 4, 9, 9, 0, 10, 7, 1, 8, 8, 10, 6, 0
      | 4, 7, 8, 10, 10, 3, 8, 2, 0, 0, 0, 8, 3, 0, 0, 0, 9, 0, 9, 0, 8, 6, 0, 9, 1, 10, 0, 9, 1, 1 |];
      
p = 42;
pre = 
   [|1, 4
    |1, 16
    |1, 24    
    |2, 5
    |2, 8
    |2, 9    
    |3, 16
    |4, 6
    |4, 28
    |5, 7
    |5, 10
    |5, 14
    |6, 12
    |7, 26
    |8, 17
    |8, 20
    |8, 29
    |9, 11
    |9, 13
    |9, 18
    |10, 21
    |11, 15 
    |11, 21
    |12, 23
    |12, 30
    |13, 24 
    |13, 26
    |14, 18
    |15, 19
    |16, 17
    |17, 30
    |18, 21
    |19, 22
    |20, 25
    |21, 27
    |22, 25
    |23, 26 
    |24, 25
    |24, 28
    |25, 30
    |26, 29
    |27, 29
    |];

